NAME : p21
COMMENT : 
TYPE : MDVRP
DIMENSION : 369
EDGE_WEIGHT_TYPE : EUC_2D
CAPACITY : 60
NODE_COORD_SECTION
1  -10  -10 
2  -10    0 
3  -10   10 
4    0  -10 
5    0   10 
6   10  -10 
7   10    0 
8   10   10 
9  -20  -20 
10  -20    0 
11  -20   20 
12    0  -20 
13    0   20 
14   20  -20 
15   20    0 
16   20   20 
17  -30  -30 
18  -30    0 
19  -30   30 
20    0  -30 
21    0   30 
22   30  -30 
23   30    0 
24   30   30 
25  -40  -40 
26  -40    0 
27  -40   40 
28    0  -40 
29    0   40 
30   40  -40 
31   40    0 
32   40   40 
33  -50  -50 
34  -50    0 
35  -50   50 
36    0  -50 
37    0   50 
38   50  -50 
39   50    0 
40   50   50 
41  100  -10 
42  100    0 
43  100   10 
44  110  -10 
45  110   10 
46  120  -10 
47  120    0 
48  120   10 
49   90  -20 
50   90    0 
51   90   20 
52  110  -20 
53  110   20 
54  130  -20 
55  130    0 
56  130   20 
57   80  -30 
58   80    0 
59   80   30 
60  110  -30 
61  110   30 
62  140  -30 
63  140    0 
64  140   30 
65   70  -40 
66   70    0 
67   70   40 
68  110  -40 
69  110   40 
70  150  -40 
71  150    0 
72  150   40 
73   60  -50 
74   60    0 
75   60   50 
76  110  -50 
77  110   50 
78  160  -50 
79  160    0 
80  160   50 
81  100  100 
82  100  110 
83  100  120 
84  110  100 
85  110  120 
86  120  100 
87  120  110 
88  120  120 
89   90   90 
90   90  110 
91   90  130 
92  110   90 
93  110  130 
94  130   90 
95  130  110 
96  130  130 
97   80   80 
98   80  110 
99   80  140 
100  110   80
101  110  140
102  140   80 
103  140  110 
104  140  140 
105   70   70 
106   70  110 
107   70  150 
108  110   70 
109  110  150 
110  150   70 
111  150  110 
112  150  150 
113   60   60 
114   60  110 
115   60  160 
116  110   60 
117  110  160 
118  160   60 
119  160  110 
120  160  160 
121  -10  100 
122  -10  110 
123  -10  120 
124    0  100 
125    0  120 
126   10  100 
127   10  110 
128   10  120 
129  -20   90 
130  -20  110 
131  -20  130 
132    0   90 
133    0  130 
134   20   90 
135   20  110 
136   20  130 
137  -30   80 
138  -30  110 
139  -30  140 
140    0   80 
141    0  140 
142   30   80 
143   30  110 
144   30  140 
145  -40   70 
146  -40  110 
147  -40  150 
148    0   70 
149    0  150 
150   40   70 
151   40  110 
152   40  150 
153  -50   60 
154  -50  110 
155  -50  160 
156    0   60 
157    0  160 
158   50   60 
159   50  110 
160   50  160 
161 -120  100 
162 -120  110 
163 -120  120 
164 -110  100 
165 -110  120 
166 -100  100 
167 -100  110 
168 -100  120 
169 -130   90 
170 -130  110 
171 -130  130 
172 -110   90 
173 -110  130 
174  -90   90 
175  -90  110 
176  -90  130 
177 -140   80 
178 -140  110 
179 -140  140 
180 -110   80 
181 -110  140 
182  -80   80 
183  -80  110 
184  -80  140 
185 -150   70 
186 -150  110 
187 -150  150 
188 -110   70 
189 -110  150 
190  -70   70 
191  -70  110 
192  -70  150 
193 -160   60 
194 -160  110 
195 -160  160 
196 -110   60 
197 -110  160 
198  -60   60 
199  -60  110 
200  -60  160 
201 -120  -10 
202 -120    0 
203 -120   10 
204 -110  -10 
205 -110   10 
206 -100  -10 
207 -100    0 
208 -100   10 
209 -130  -20 
210 -130    0 
211 -130   20 
212 -110  -20 
213 -110   20 
214  -90  -20 
215  -90    0 
216  -90   20 
217 -140  -30 
218 -140    0 
219 -140   30 
220 -110  -30 
221 -110   30 
222  -80  -30 
223  -80    0 
224  -80   30 
225 -150  -40 
226 -150    0 
227 -150   40 
228 -110  -40 
229 -110   40 
230  -70  -40 
231  -70    0 
232  -70   40 
233 -160  -50 
234 -160    0 
235 -160   50 
236 -110  -50 
237 -110   50 
238  -60  -50 
239  -60    0 
240  -60   50 
241 -120 -120 
242 -120 -110 
243 -120 -100 
244 -110 -120 
245 -110 -100 
246 -100 -120 
247 -100 -110 
248 -100 -100 
249 -130 -130 
250 -130 -110 
251 -130  -90 
252 -110 -130 
253 -110  -90 
254  -90 -130 
255  -90 -110 
256  -90  -90 
257 -140 -140 
258 -140 -110 
259 -140  -80 
260 -110 -140 
261 -110  -80 
262  -80 -140 
263  -80 -110 
264  -80  -80 
265 -150 -150 
266 -150 -110 
267 -150  -70 
268 -110 -150 
269 -110  -70 
270  -70 -150 
271  -70 -110 
272  -70  -70 
273 -160 -160 
274 -160 -110 
275 -160  -60 
276 -110 -160 
277 -110  -60 
278  -60 -160 
279  -60 -110 
280  -60  -60 
281  -10 -120 
282  -10 -110 
283  -10 -100 
284    0 -120 
285    0 -100 
286   10 -120 
287   10 -110 
288   10 -100 
289  -20 -130 
290  -20 -110 
291  -20  -90 
292    0 -130 
293    0  -90 
294   20 -130 
295   20 -110 
296   20  -90 
297  -30 -140 
298  -30 -110 
299  -30  -80 
300    0 -140 
301    0  -80 
302   30 -140 
303   30 -110 
304   30  -80 
305  -40 -150 
306  -40 -110 
307  -40  -70 
308    0 -150 
309    0  -70 
310   40 -150 
311   40 -110 
312   40  -70 
313  -50 -160 
314  -50 -110 
315  -50  -60 
316    0 -160 
317    0  -60 
318   50 -160 
319   50 -110 
320   50  -60 
321  100 -120 
322  100 -110 
323  100 -100 
324  110 -120 
325  110 -100 
326  120 -120 
327  120 -110 
328  120 -100 
329   90 -130 
330   90 -110 
331   90  -90 
332  110 -130 
333  110  -90 
334  130 -130 
335  130 -110 
336  130  -90 
337   80 -140 
338   80 -110 
339   80  -80 
340  110 -140 
341  110  -80 
342  140 -140 
343  140 -110 
344  140  -80 
345   70 -150 
346   70 -110 
347   70  -70 
348  110 -150 
349  110  -70 
350  150 -150 
351  150 -110 
352  150  -70 
353   60 -160 
354   60 -110 
355   60  -60 
356  110 -160 
357  110  -60 
358  160 -160 
359  160 -110 
360  160  -60 
361    0    0 
362  110    0 
363  110  110 
364    0  110 
365 -110  110 
366 -110    0 
367 -110 -110 
368    0 -110 
369  110 -110 
DEMAND_SECTION
1  12
2  12
3  12
4  12
5  12
6  12
7  12
8  12
9  8
10  8
11  8
12  8
13  8
14  8
15  8
16  8
17  4
18  4
19  4
20  4
21  4
22  4
23  4
24  4
25  2
26  2
27  2
28  2
29  2
30  2
31  2
32  2
33  1
34  1
35  1
36  1
37  1
38  1
39  1
40  1
41  12
42  12
43  12
44  12
45  12
46  12
47  12
48  12
49  8
50  8
51  8
52  8
53  8
54  8
55  8
56  8
57  4
58  4
59  4
60  4
61  4
62  4
63  4
64  4
65  2
66  2
67  2
68  2
69  2
70  2
71  2
72  2
73  1
74  1
75  1
76  1
77  1
78  1
79  1
80  1
81  12
82  12
83  12
84  12
85  12
86  12
87  12
88  12
89  8
90  8
91  8
92  8
93  8
94  8
95  8
96  8
97  4
98  4
99  4
100  4
101  4
102  4
103  4
104  4
105  2
106  2
107  2
108  2
109  2
110  2
111  2
112  2
113  1
114  1
115  1
116  1
117  1
118  1
119  1
120  1
121  12
122  12
123  12
124  12
125  12
126  12
127  12
128  12
129  8
130  8
131  8
132  8
133  8
134  8
135  8
136  8
137  4
138  4
139  4
140  4
141  4
142  4
143  4
144  4
145  2
146  2
147  2
148  2
149  2
150  2
151  2
152  2
153  1
154  1
155  1
156  1
157  1
158  1
159  1
160  1
161 12
162 12
163 12
164 12
165 12
166 12
167 12
168 12
169 8
170 8
171 8
172 8
173 8
174 8
175 8
176 8
177 4
178 4
179 4
180 4
181 4
182 4
183 4
184 4
185 2
186 2
187 2
188 2
189 2
190 2
191 2
192 2
193 1
194 1
195 1
196 1
197 1
198 1
199 1
200 1
201 12
202 12
203 12
204 12
205 12
206 12
207 12
208 12
209 8
210 8
211 8
212 8
213 8
214 8
215 8
216 8
217 4
218 4
219 4
220 4
221 4
222 4
223 4
224 4
225 2
226 2
227 2
228 2
229 2
230 2
231 2
232 2
233 1
234 1
235 1
236 1
237 1
238 1
239 1
240 1
241 12
242 12
243 12
244 12
245 12
246 12
247 12
248 12
249 8
250 8
251 8
252 8
253 8
254 8
255 8
256 8
257 4
258 4
259 4
260 4
261 4
262 4
263 4
264 4
265 2
266 2
267 2
268 2
269 2
270 2
271 2
272 2
273 1
274 1
275 1
276 1
277 1
278 1
279 1
280 1
281 12
282 12
283 12
284 12
285 12
286 12
287 12
288 12
289 8
290 8
291 8
292 8
293 8
294 8
295 8
296 8
297 4
298 4
299 4
300 4
301 4
302 4
303 4
304 4
305 2
306 2
307 2
308 2
309 2
310 2
311 2
312 2
313 1
314 1
315 1
316 1
317 1
318 1
319 1
320 1
321 12
322 12
323 12
324 12
325 12
326 12
327 12
328 12
329 8
330 8
331 8
332 8
333 8
334 8
335 8
336 8
337 4
338 4
339 4
340 4
341 4
342 4
343 4
344 4
345 2
346 2
347 2
348 2
349 2
350 2
351 2
352 2
353 1
354 1
355 1
356 1
357 1
358 1
359 1
360 1
361 2590
362 2590
363 2590
364 2590
365 2590
366 2590
367 2590
368 2590
369 2590
DEPOT_SECTION
361
362
363
364
365
366
367
368
369
 -1
EOF
